3
15
31
40	31
1	2	4	11	13	6	
2	2	9	5	5	15	
3	2	13	8	26	2	
4	1	10	5	
5	2	13	7	31	2	
6	2	12	8	6	11	
7	1	5	10	
8	3	9	7	7	8	12	3	
9	2	22	2	7	13	
10	3	11	5	6	12	29	2	
11	3	9	6	15	8	10	5	
12	1	13	3	
13	3	17	3	14	5	5	9	
14	1	6	9	
15	3	7	6	8	5	16	7	
